100
1000
200
200
200
200
199
198
198
198
197
197
196
196
196
195
195
194
193
193
193
192
192
192
192
191
191
191
190
190
189
189
188
188
188
188
188
187
186
185
184
182
182
182
181
180
179
178
177
177
176
175
175
174
174
174
173
172
171
171
170
169
168
168
167
166
166
166
166
166
165
165
165
165
163
161
161
161
160
160
160
160
160
159
157
155
155
154
153
153
153
153
152
152
152
152
151
151
151
150
150
150
